
-11.6
-11.4
-11.2
-11.1
-11.0
-10.9
-10.9
-10.7
-10.5
-10.5
-10.4
-10.4
-10.4
-10.3
-10.2
-10.1
-9.9
-9.8
-9.8
-9.8
-9.8
-9.8
-9.7
-9.7
-9.7
-9.7
-9.7
-9.7
-9.7
-9.7
-9.5
-9.5
-9.5
-9.5
-9.5
-9.5
-9.5